minizinc/sudoku_problems2/sudoku_p78.dzn
%
% sudoku_p78.dzn
% See http://www.hakank.org/minizinc/sudoku_gcc.mzn
% 
% This problem is problem 78 from
% Gecode's sudoku.cpp
% http://www.gecode.org/gecode-doc-latest/sudoku_8cpp-source.html
% 
x = array2d(1..n, 1..n, [   
% http://janko.at/Raetsel/Sudoku/590.a.htm
% 78
  _,  1, 11,  _,  _,  _,  _,  _,  2,  _,  5,  9, 15,  _,  6, 16,
 16,  _,  2,  3,  4,  1, 10,  _,  _,  _, 11, 15,  _,  _,  _,  _,
 12,  _, 14,  8,  _,  _,  _,  _,  3,  _,  _, 13,  _,  2,  4,  _,
 15,  _,  _,  _,  _,  9, 14,  _,  _,  1,  _,  _,  _, 11,  3,  8,
  _,  _,  1,  _, 15,  4,  5,  _,  6,  _,  3,  _,  2,  _,  _,  9,
  3,  _,  _, 14,  _,  8, 12,  _,  5, 13,  _,  _,  1,  _,  _,  _,
  _,  _,  _,  _, 13, 11,  _,  _, 10,  8,  _,  _,  _, 15, 14,  3,
  _,  4,  _,  9,  3,  _,  1,  _, 14,  _,  _, 16,  _,  8, 13,  _,
  _, 16, 15,  _, 12,  _,  _,  7,  _,  5,  _,  6,  9,  _,  8,  _,
 11, 13, 12,  _,  _,  _, 15,  1,  _,  _, 10,  8,  _,  _,  _,  _,
  _,  _,  _,  5,  _,  _,  9,  4,  _,  2,  1,  _, 16,  _,  _, 12,
 14,  _,  _,  1,  _,  5,  _,  8,  _, 15, 12,  3,  _, 13,  _,  _,
  1, 11,  4,  _,  _,  _,  8,  _,  _,  9,  2,  _,  _,  _,  _,  6,
  _, 10,  8,  _,  9,  _,  _, 12,  _,  _,  _,  _,  4,  5,  _, 11,
  _,  _,  _,  _,  1,  2,  _,  _,  _,  6,  8,  5,  3, 10,  _, 15,
  5, 12,  _,  2,  7, 10,  _, 11,  _,  _,  _,  _,  _,  9,  1,  _
]);

n = 16;


